c Generated map
c Size: 8 * 8, weights in range: 1 to 10, walls: True, with ratio 0.1
c dim 2 of 10
c
p sp 64 92
c graph contains 64 nodes and 92 arcs
c
a 1 9 7
a 9 1 7
a 1 2 10
a 2 1 10
a 2 10 6
a 10 2 6
a 2 3 10
a 3 2 10
a 3 11 10
a 11 3 10
a 3 4 3
a 4 3 3
a 4 12 4
a 12 4 4
a 4 5 5
a 5 4 5
a 5 13 1
a 13 5 1
a 5 6 5
a 6 5 5
a 6 14 3
a 14 6 3
a 6 7 5
a 7 6 5
a 7 8 9
a 8 7 9
a 8 16 6
a 16 8 6
a 9 17 8
a 17 9 8
a 9 10 4
a 10 9 4
a 10 18 2
a 18 10 2
a 10 11 2
a 11 10 2
a 11 19 4
a 19 11 4
a 11 12 1
a 12 11 1
a 12 20 1
a 20 12 1
a 12 13 9
a 13 12 9
a 13 21 3
a 21 13 3
a 13 14 10
a 14 13 10
a 16 24 5
a 24 16 5
a 17 25 4
a 25 17 4
a 17 18 10
a 18 17 10
a 18 26 1
a 26 18 1
a 18 19 4
a 19 18 4
a 19 27 2
a 27 19 2
a 19 20 4
a 20 19 4
a 20 28 4
a 28 20 4
a 20 21 1
a 21 20 1
a 21 29 5
a 29 21 5
a 23 31 5
a 31 23 5
a 23 24 8
a 24 23 8
a 24 32 9
a 32 24 9
a 25 33 1
a 33 25 1
a 25 26 6
a 26 25 6
a 26 34 8
a 34 26 8
a 26 27 9
a 27 26 9
a 27 35 10
a 35 27 10
a 27 28 1
a 28 27 1
a 28 36 8
a 36 28 8
a 28 29 2
a 29 28 2
a 29 37 10
a 37 29 10
a 29 30 6
a 30 29 6
a 30 38 1
a 38 30 1
a 30 31 6
a 31 30 6
a 31 39 7
a 39 31 7
a 31 32 1
a 32 31 1
a 32 40 9
a 40 32 9
a 33 41 9
a 41 33 9
a 33 34 9
a 34 33 9
a 34 42 6
a 42 34 6
a 34 35 3
a 35 34 3
a 35 43 6
a 43 35 6
a 35 36 4
a 36 35 4
a 36 44 8
a 44 36 8
a 36 37 2
a 37 36 2
a 37 38 7
a 38 37 7
a 38 46 9
a 46 38 9
a 38 39 6
a 39 38 6
a 39 47 5
a 47 39 5
a 39 40 6
a 40 39 6
a 41 49 1
a 49 41 1
a 41 42 1
a 42 41 1
a 42 50 1
a 50 42 1
a 42 43 8
a 43 42 8
a 43 51 6
a 51 43 6
a 43 44 3
a 44 43 3
a 44 52 3
a 52 44 3
a 46 54 2
a 54 46 2
a 46 47 8
a 47 46 8
a 47 55 2
a 55 47 2
a 49 57 10
a 57 49 10
a 49 50 9
a 50 49 9
a 50 58 3
a 58 50 3
a 50 51 6
a 51 50 6
a 51 59 5
a 59 51 5
a 51 52 1
a 52 51 1
a 52 53 7
a 53 52 7
a 53 54 7
a 54 53 7
a 54 62 6
a 62 54 6
a 54 55 9
a 55 54 9
a 55 63 7
a 63 55 7
a 55 56 9
a 56 55 9
a 56 64 4
a 64 56 4
a 57 58 3
a 58 57 3
a 58 59 10
a 59 58 10
a 62 63 5
a 63 62 5
a 63 64 5
a 64 63 5
